Route #1: 34 46 8 52 27 4
Route #2: 22 64 42 43 41 56 23
Route #3: 31 55 25 50 18 24 49
Route #4: 9 39 58 10 38
Route #5: 11 59 14 53 7
Route #6: 35 19 54 13 57 15 5 29 45
Route #7: 30 48 47 36 60 20 37
Route #8: 21 61 28 2 6 51
Route #9: 62 1 33 63 16 3 44
Route #10: 17 32 40 12 26
Cost 845